results/res_prop_muc/res_Cimatti_mathsat_cores/QF_UF/SEQ032_size3.smt.smt2.out

real	0m0.092s
user	0m0.050s
sys	0m0.009s
